experiment/data/hgs-res/Vrp-Set-B-n35/Vrp-Set-B-n35-hgs/0.hgs1.vrp
NAME : 0
COMMENT : CVRP Instance
TYPE : CVRP
DIMENSION : 35
EDGE_WEIGHT_TYPE : EUC_2D
CAPACITY : 100
NODE_COORD_SECTION
1	78.0	95.0
2	93.0	43.0
3	57.0	4.0
4	2.0	80.0
5	10.0	17.0
6	31.0	8.0
7	10.0	87.0
8	97.0	50.0
9	16.0	93.0
10	98.0	48.0
11	103.0	47.0
12	38.0	9.0
13	100.0	51.0
14	60.0	11.0
15	15.0	19.0
16	39.0	15.0
17	102.0	47.0
18	103.0	59.0
19	10.0	82.0
20	39.0	9.0
21	97.0	52.0
22	18.0	97.0
23	32.0	13.0
24	96.0	45.0
25	11.0	21.0
26	15.0	96.0
27	10.0	81.0
28	13.0	24.0
29	0.0	8.0
30	103.0	59.0
31	33.0	11.0
32	13.0	94.0
33	63.0	5.0
34	3.0	87.0
35	14.0	25.0
DEMAND_SECTION
1	0
2	12
3	3
4	2
5	13
6	17
7	12
8	1
9	26
10	13
11	15
12	20
13	20
14	3
15	3
16	12
17	25
18	2
19	15
20	24
21	2
22	7
23	15
24	2
25	13
26	9
27	12
28	26
29	17
30	26
31	9
32	14
33	9
34	25
35	13
DEPOT_SECTION
1
-1
EOF
