experiment/data/hgs-res/Vrp-Set-B-n35/Vrp-Set-B-n35-hgs/0.hgs1.tour
Route #1: 6 33 3 18 26 1 23 9 7 20
Route #2: 34 27 24 28 4 14 22
Route #3: 15 30 5 11 19 2 32 13
Route #4: 12 16 10 29 17
Route #5: 8 31 25 21
Cost 956.294
